12
1 2 350  
1 3 300
1 4 560
1 5 432
1 6 345
1 7 280
1 8 231
1 9 336 
1 10 457
1 11 78
1 12 233
2 3 197
2 4 147
2 5 65
2 6 115
2 7 225
2 8 56
2 9 85
2 10 91
2 11 97
2 12 101
3 4 115
3 5 117
3 6 83
3 7 67
3 8 126
3 9 128
3 10 162
3 11 77
3 12 86
4 5 124
4 6 65
4 7 110
4 8 48
4 9 94
4 10 39
4 11 52
4 12 32
5 6 156
5 7 189
5 8 220
5 9 45
5 10 347
5 11 320
5 12 315
6 7 286
6 8 56
6 9 318
6 10 415
6 11 82
6 12 424
7 8 452
7 9 313
7 10 158
7 11 96
7 12 98
8 9 247
8 10 37
8 11 123
8 12 45
9 10 216
9 11 200
9 12 195
10 11 55
10 12 68
11 12 49